Set parameter Username
Academic license - for non-commercial use only - expires 2022-06-20
Gurobi Optimizer version 9.5.1 build v9.5.1rc2 (mac64[x86])
Thread count: 2 physical cores, 4 logical processors, using up to 4 threads
Optimize a model with 1681 rows, 1600 columns and 6360 nonzeros
Model fingerprint: 0xa2e284b7
Variable types: 0 continuous, 1600 integer (1600 binary)
Coefficient statistics:
  Matrix range     [1e+00, 5e+02]
  Objective range  [1e+00, 8e+00]
  Bounds range     [1e+00, 1e+00]
  RHS range        [1e+00, 8e+00]
Presolve removed 68 rows and 0 columns
Presolve time: 0.04s
Presolved: 1613 rows, 1600 columns, 6376 nonzeros
Variable types: 0 continuous, 1600 integer (1600 binary)
Found heuristic solution: objective 126.0762330

Root relaxation: objective 3.482377e+01, 495 iterations, 0.02 seconds (0.02 work units)

    Nodes    |    Current Node    |     Objective Bounds      |     Work
 Expl Unexpl |  Obj  Depth IntInf | Incumbent    BestBd   Gap | It/Node Time

     0     0   34.82377    0  138  126.07623   34.82377  72.4%     -    0s
H    0     0                      72.1610459   34.82377  51.7%     -    0s
H    0     0                      49.8635317   34.82377  30.2%     -    0s
H    0     0                      43.6961862   34.82377  20.3%     -    0s
     0     0   35.39311    0  131   43.69619   35.39311  19.0%     -    0s
H    0     0                      39.7120541   35.39311  10.9%     -    0s
     0     0   35.39808    0  132   39.71205   35.39808  10.9%     -    0s
     0     0   35.65197    0  114   39.71205   35.65197  10.2%     -    0s
     0     0   35.68741    0  112   39.71205   35.68741  10.1%     -    0s
     0     0   35.68742    0  122   39.71205   35.68742  10.1%     -    0s
     0     0   36.05738    0  138   39.71205   36.05738  9.20%     -    0s
H    0     0                      39.1262677   36.05738  7.84%     -    0s
     0     0   36.10276    0  132   39.12627   36.10276  7.73%     -    0s
     0     0   36.10795    0  135   39.12627   36.10795  7.71%     -    0s
     0     0   36.25418    0  135   39.12627   36.25418  7.34%     -    0s
     0     0   36.25418    0  138   39.12627   36.25418  7.34%     -    0s
     0     0   36.25418    0  113   39.12627   36.25418  7.34%     -    0s
     0     0   36.25418    0  139   39.12627   36.25418  7.34%     -    0s
     0     0   36.25418    0  142   39.12627   36.25418  7.34%     -    0s
     0     0   36.25418    0  135   39.12627   36.25418  7.34%     -    0s
     0     0   36.30775    0  141   39.12627   36.30775  7.20%     -    0s
     0     0   36.31654    0  149   39.12627   36.31654  7.18%     -    0s
     0     0   36.32605    0  147   39.12627   36.32605  7.16%     -    0s
     0     0   36.37059    0  140   39.12627   36.37059  7.04%     -    1s
     0     0   36.37059    0  140   39.12627   36.37059  7.04%     -    1s
H    0     0                      38.8901997   36.37059  6.48%     -    1s
     0     2   36.37059    0  140   38.89020   36.37059  6.48%     -    1s
H   59    60                      38.5563492   36.49345  5.35%  48.9    1s
H  718   410                      38.3782036   36.77833  4.17%  39.0    2s
H  741   227                      37.5563485   36.78186  2.06%  38.5    2s
  1000   240   36.93465   18  111   37.55635   36.83857  1.91%  39.3    5s

Cutting planes:
  MIR: 23
  StrongCG: 17
  Flow cover: 22
  GUB cover: 10
  Zero half: 2
  Mod-K: 1

Explored 1734 nodes (67080 simplex iterations) in 5.90 seconds (3.69 work units)
Thread count was 4 (of 4 available processors)

Solution count 10: 37.5563 38.3782 38.5563 ... 126.076

Optimal solution found (tolerance 1.00e-04)
Best objective 3.755634845585e+01, best bound 3.755634845585e+01, gap 0.0000%
Gurobi Optimizer version 9.5.1 build v9.5.1rc2 (mac64[x86])
Thread count: 2 physical cores, 4 logical processors, using up to 4 threads
Optimize a model with 4841 rows, 6960 columns and 25292 nonzeros
Model fingerprint: 0x0faf6f63
Variable types: 5360 continuous, 1600 integer (1600 binary)
Coefficient statistics:
  Matrix range     [1e+00, 5e+02]
  Objective range  [1e+00, 8e+00]
  Bounds range     [1e+00, 1e+00]
  RHS range        [1e+00, 8e+00]

MIP start from previous solve did not produce a new incumbent solution

Presolve removed 126 rows and 199 columns
Presolve time: 0.18s
Presolved: 4715 rows, 6761 columns, 24831 nonzeros
Variable types: 5163 continuous, 1598 integer (1598 binary)

Root relaxation: objective 3.482377e+01, 618 iterations, 0.03 seconds (0.03 work units)

    Nodes    |    Current Node    |     Objective Bounds      |     Work
 Expl Unexpl |  Obj  Depth IntInf | Incumbent    BestBd   Gap | It/Node Time

     0     0   34.82377    0  138          -   34.82377      -     -    0s
     0     0   35.39311    0  131          -   35.39311      -     -    0s
     0     0   35.39808    0  132          -   35.39808      -     -    0s
     0     0   35.67974    0  143          -   35.67974      -     -    0s
     0     0   35.68764    0  105          -   35.68764      -     -    0s
     0     0   36.10820    0  149          -   36.10820      -     -    1s
     0     0   36.11494    0  141          -   36.11494      -     -    1s
     0     0   36.11494    0  141          -   36.11494      -     -    1s
     0     0   36.18853    0  148          -   36.18853      -     -    1s
     0     0   36.22273    0  143          -   36.22273      -     -    1s
     0     0   36.28327    0  145          -   36.28327      -     -    1s
     0     0   36.31934    0  139          -   36.31934      -     -    1s
     0     0   36.32192    0  139          -   36.32192      -     -    1s
     0     0   36.32542    0  138          -   36.32542      -     -    1s
     0     0   36.32574    0  138          -   36.32574      -     -    1s
     0     0   36.33640    0  141          -   36.33640      -     -    1s
     0     0   36.34072    0  144          -   36.34072      -     -    1s
     0     0   36.34096    0  144          -   36.34096      -     -    1s
     0     0   36.38858    0  142          -   36.38858      -     -    1s
     0     0   36.39089    0  145          -   36.39089      -     -    1s
     0     0   36.39602    0  142          -   36.39602      -     -    1s
     0     0   36.39602    0  142          -   36.39602      -     -    1s
     0     0   36.39602    0  142          -   36.39602      -     -    1s
     0     2   36.55069    0  142          -   36.55069      -     -    2s
   625   380   37.18587   17   12          -   36.63474      -  51.3    5s
   764   427   40.58822   20  183          -   36.64688      -  48.1   10s
   922   494   37.70576   23  120          -   36.71796      -  16.5   15s
  1376   698   39.26967   29   73          -   36.79513      -  38.7   20s
  1952   862 infeasible   43               -   36.85533      -  45.7   25s
  2639  1303 infeasible   30               -   36.91448      -  49.3   30s
  3328  1805   41.22389   57   16          -   36.95097      -  58.4   35s
  4209  2383   43.97653   25   58          -   36.98392      -  62.6   40s
  4785  2837   43.67011   40   31          -   36.99566      -  66.2   45s
  5375  3091   43.49740   44   79          -   37.00785      -  69.4   50s
  6026  3633 infeasible   43               -   37.03283      -  70.4   56s
  6614  3926   41.50483   41   66          -   37.04233      -  72.6   60s
  7024  4270   41.10572   56   55          -   37.04852      -  74.1   65s
  7687  4705 infeasible   57               -   37.05583      -  75.4   70s
  8497  5277 infeasible   61               -   37.07200      -  75.8   75s
  9427  5869   40.22197   45   60          -   37.08502      -  76.0   80s
 10133  6256   43.59690   36   46          -   37.09633      -  77.0   85s
 10606  6678   38.48696   29   35          -   37.10541      -  77.3   91s
 11133  7076   39.58441   29   45          -   37.11300      -  77.6   96s
 11857  7463   37.59213   23   71          -   37.13032      -  77.4  100s
 12638  7953   41.03592   52   65          -   37.13490      -  78.4  106s
 13023  8173   40.11393   37   43          -   37.14105      -  78.8  110s
 13505  8453   38.10161   26   76          -   37.14771      -  79.3  115s
 13974  8798   40.48624   44   54          -   37.15182      -  80.0  121s
 14490  9019   41.74803   44  142          -   37.16363      -  80.4  139s
 14492  9020   38.31309   34  138          -   37.16363      -  80.4  140s
 14511  9033   47.53797   46  178          -   37.16363      -  80.3  145s
 14519  9038   38.49880   29  211          -   37.16363      -  80.2  150s
 14525  9042   37.54914   30  205          -   37.16363      -  80.2  155s
 14527  9047   37.16363   27  184          -   37.16363      -  80.4  163s
 14529  9048   37.16363   28  128          -   37.16363      -  80.4  165s
 14533  9051   37.16363   29  158          -   37.16363      -  80.4  170s
 14541  9056   37.78538   31   64          -   37.16363      -  80.4  175s
 14610  9088   41.87633   50   52          -   37.16363      -  80.9  180s
 14717  9116   37.36249   39   88          -   37.16363      -  81.5  185s
 14831  9145   40.68660   64   61          -   37.16363      -  82.0  190s

Cutting planes:
  Gomory: 1
  Lift-and-project: 3
  Cover: 1
  Implied bound: 4
  Projected implied bound: 1
  MIR: 39
  StrongCG: 36
  Flow cover: 83
  GUB cover: 19
  Zero half: 14
  Network: 1

Explored 14952 nodes (1275472 simplex iterations) in 194.23 seconds (165.23 work units)
Thread count was 4 (of 4 available processors)

Solution count 0

Solve interrupted
Best objective -, best bound 3.716363402512e+01, gap -
